50
17193

726 89
926 340
158 287
325 432
540 917
432 211
476 657
542 11
19 985
209 694
717 530
966 691
483 284
985 436
448 370
640 493
671 680
497 746
256 760
587 143
627 889
677 404
178 888
30 182
645 119
394 700
422 645
762 646
554 308
97 542
69 743
847 40
627 861
100 202
591 315
882 425
90 369
407 57
72 707
504 112
392 340
230 493
222 730
633 873
171 254
528 397
212 829
924 403
379 379
772 626
